NAME : LKH/problem_files/LocalTSPInstance5.580763.tour
COMMENT : Length = 580763
COMMENT : Found by LKH [Keld Helsgaun] Fri Jul  2 10:45:51 2021
TYPE : TOUR
DIMENSION : 185
TOUR_SECTION
1
20
16
18
19
17
37
39
40
38
62
64
65
63
60
61
59
58
34
33
36
35
14
15
13
12
10
11
31
32
56
57
82
83
106
107
130
131
152
153
151
150
129
128
105
104
81
80
55
54
30
29
9
8
4
6
5
7
25
27
26
28
50
52
51
53
76
78
77
79
100
102
101
103
124
126
125
127
146
148
147
149
144
145
123
122
99
98
75
74
49
48
24
23
3
21
2
22
46
47
72
73
96
97
120
121
142
143
165
164
167
166
171
169
170
168
173
172
175
174
176
177
179
178
156
157
155
154
133
132
135
134
110
111
109
108
85
84
87
86
89
88
90
91
112
114
115
113
136
138
139
137
158
160
161
159
181
183
182
180
185
184
163
162
141
140
117
116
93
92
67
66
42
41
44
43
45
70
71
68
69
94
95
118
119
-1
EOF
